p cnf 200 1090
   1   2   3   4   5   0
   6   7   8   9  10   0
  11  12  13  14  15   0
  16  17  18  19  20   0
  21  22  23  24  25   0
  26  27  28  29  30   0
  31  32  33  34  35   0
  36  37  38  39  40   0
  41  42  43  44  45   0
  46  47  48  49  50   0
  51  52  53  54  55   0
  56  57  58  59  60   0
  61  62  63  64  65   0
  66  67  68  69  70   0
  71  72  73  74  75   0
  76  77  78  79  80   0
  81  82  83  84  85   0
  86  87  88  89  90   0
  91  92  93  94  95   0
  96  97  98  99 100   0
 101 102 103 104 105   0
 106 107 108 109 110   0
 111 112 113 114 115   0
 116 117 118 119 120   0
 121 122 123 124 125   0
 126 127 128 129 130   0
 131 132 133 134 135   0
 136 137 138 139 140   0
 141 142 143 144 145   0
 146 147 148 149 150   0
 151 152 153 154 155   0
 156 157 158 159 160   0
 161 162 163 164 165   0
 166 167 168 169 170   0
 171 172 173 174 175   0
 176 177 178 179 180   0
 181 182 183 184 185   0
 186 187 188 189 190   0
 191 192 193 194 195   0
 196 197 198 199 200   0
  -1 -126  0
  -2 -127  0
  -3 -128  0
  -4 -129  0
  -5 -130  0
  -1 -146  0
  -2 -147  0
  -3 -148  0
  -4 -149  0
  -5 -150  0
  -1 -156  0
  -2 -157  0
  -3 -158  0
  -4 -159  0
  -5 -160  0
  -1 -166  0
  -2 -167  0
  -3 -168  0
  -4 -169  0
  -5 -170  0
  -1 -176  0
  -2 -177  0
  -3 -178  0
  -4 -179  0
  -5 -180  0
  -1 -181  0
  -2 -182  0
  -3 -183  0
  -4 -184  0
  -5 -185  0
  -1 -186  0
  -2 -187  0
  -3 -188  0
  -4 -189  0
  -5 -190  0
  -1 -191  0
  -2 -192  0
  -3 -193  0
  -4 -194  0
  -5 -195  0
  -1 -196  0
  -2 -197  0
  -3 -198  0
  -4 -199  0
  -5 -200  0
  -6 -141  0
  -7 -142  0
  -8 -143  0
  -9 -144  0
 -10 -145  0
  -6 -146  0
  -7 -147  0
  -8 -148  0
  -9 -149  0
 -10 -150  0
  -6 -151  0
  -7 -152  0
  -8 -153  0
  -9 -154  0
 -10 -155  0
  -6 -156  0
  -7 -157  0
  -8 -158  0
  -9 -159  0
 -10 -160  0
  -6 -176  0
  -7 -177  0
  -8 -178  0
  -9 -179  0
 -10 -180  0
  -6 -181  0
  -7 -182  0
  -8 -183  0
  -9 -184  0
 -10 -185  0
  -6 -186  0
  -7 -187  0
  -8 -188  0
  -9 -189  0
 -10 -190  0
  -6 -191  0
  -7 -192  0
  -8 -193  0
  -9 -194  0
 -10 -195  0
  -6 -196  0
  -7 -197  0
  -8 -198  0
  -9 -199  0
 -10 -200  0
 -11 -126  0
 -12 -127  0
 -13 -128  0
 -14 -129  0
 -15 -130  0
 -11 -136  0
 -12 -137  0
 -13 -138  0
 -14 -139  0
 -15 -140  0
 -11 -161  0
 -12 -162  0
 -13 -163  0
 -14 -164  0
 -15 -165  0
 -11 -166  0
 -12 -167  0
 -13 -168  0
 -14 -169  0
 -15 -170  0
 -11 -176  0
 -12 -177  0
 -13 -178  0
 -14 -179  0
 -15 -180  0
 -11 -181  0
 -12 -182  0
 -13 -183  0
 -14 -184  0
 -15 -185  0
 -11 -186  0
 -12 -187  0
 -13 -188  0
 -14 -189  0
 -15 -190  0
 -11 -191  0
 -12 -192  0
 -13 -193  0
 -14 -194  0
 -15 -195  0
 -11 -196  0
 -12 -197  0
 -13 -198  0
 -14 -199  0
 -15 -200  0
 -16 -131  0
 -17 -132  0
 -18 -133  0
 -19 -134  0
 -20 -135  0
 -16 -141  0
 -17 -142  0
 -18 -143  0
 -19 -144  0
 -20 -145  0
 -16 -151  0
 -17 -152  0
 -18 -153  0
 -19 -154  0
 -20 -155  0
 -16 -171  0
 -17 -172  0
 -18 -173  0
 -19 -174  0
 -20 -175  0
 -16 -176  0
 -17 -177  0
 -18 -178  0
 -19 -179  0
 -20 -180  0
 -16 -181  0
 -17 -182  0
 -18 -183  0
 -19 -184  0
 -20 -185  0
 -16 -186  0
 -17 -187  0
 -18 -188  0
 -19 -189  0
 -20 -190  0
 -16 -191  0
 -17 -192  0
 -18 -193  0
 -19 -194  0
 -20 -195  0
 -16 -196  0
 -17 -197  0
 -18 -198  0
 -19 -199  0
 -20 -200  0
 -21 -131  0
 -22 -132  0
 -23 -133  0
 -24 -134  0
 -25 -135  0
 -21 -136  0
 -22 -137  0
 -23 -138  0
 -24 -139  0
 -25 -140  0
 -21 -161  0
 -22 -162  0
 -23 -163  0
 -24 -164  0
 -25 -165  0
 -21 -171  0
 -22 -172  0
 -23 -173  0
 -24 -174  0
 -25 -175  0
 -21 -176  0
 -22 -177  0
 -23 -178  0
 -24 -179  0
 -25 -180  0
 -21 -181  0
 -22 -182  0
 -23 -183  0
 -24 -184  0
 -25 -185  0
 -21 -186  0
 -22 -187  0
 -23 -188  0
 -24 -189  0
 -25 -190  0
 -21 -191  0
 -22 -192  0
 -23 -193  0
 -24 -194  0
 -25 -195  0
 -21 -196  0
 -22 -197  0
 -23 -198  0
 -24 -199  0
 -25 -200  0
 -26  -41  0
 -27  -42  0
 -28  -43  0
 -29  -44  0
 -30  -45  0
 -26  -46  0
 -27  -47  0
 -28  -48  0
 -29  -49  0
 -30  -50  0
 -26  -51  0
 -27  -52  0
 -28  -53  0
 -29  -54  0
 -30  -55  0
 -26 -121  0
 -27 -122  0
 -28 -123  0
 -29 -124  0
 -30 -125  0
 -26 -131  0
 -27 -132  0
 -28 -133  0
 -29 -134  0
 -30 -135  0
 -26 -141  0
 -27 -142  0
 -28 -143  0
 -29 -144  0
 -30 -145  0
 -26 -161  0
 -27 -162  0
 -28 -163  0
 -29 -164  0
 -30 -165  0
 -26 -171  0
 -27 -172  0
 -28 -173  0
 -29 -174  0
 -30 -175  0
 -26 -186  0
 -27 -187  0
 -28 -188  0
 -29 -189  0
 -30 -190  0
 -26 -196  0
 -27 -197  0
 -28 -198  0
 -29 -199  0
 -30 -200  0
 -31  -36  0
 -32  -37  0
 -33  -38  0
 -34  -39  0
 -35  -40  0
 -31  -46  0
 -32  -47  0
 -33  -48  0
 -34  -49  0
 -35  -50  0
 -31  -71  0
 -32  -72  0
 -33  -73  0
 -34  -74  0
 -35  -75  0
 -31 -106  0
 -32 -107  0
 -33 -108  0
 -34 -109  0
 -35 -110  0
 -31 -131  0
 -32 -132  0
 -33 -133  0
 -34 -134  0
 -35 -135  0
 -31 -136  0
 -32 -137  0
 -33 -138  0
 -34 -139  0
 -35 -140  0
 -31 -161  0
 -32 -162  0
 -33 -163  0
 -34 -164  0
 -35 -165  0
 -31 -166  0
 -32 -167  0
 -33 -168  0
 -34 -169  0
 -35 -170  0
 -31 -176  0
 -32 -177  0
 -33 -178  0
 -34 -179  0
 -35 -180  0
 -31 -196  0
 -32 -197  0
 -33 -198  0
 -34 -199  0
 -35 -200  0
 -36  -41  0
 -37  -42  0
 -38  -43  0
 -39  -44  0
 -40  -45  0
 -36  -66  0
 -37  -67  0
 -38  -68  0
 -39  -69  0
 -40  -70  0
 -36 -116  0
 -37 -117  0
 -38 -118  0
 -39 -119  0
 -40 -120  0
 -36 -141  0
 -37 -142  0
 -38 -143  0
 -39 -144  0
 -40 -145  0
 -36 -146  0
 -37 -147  0
 -38 -148  0
 -39 -149  0
 -40 -150  0
 -36 -151  0
 -37 -152  0
 -38 -153  0
 -39 -154  0
 -40 -155  0
 -36 -171  0
 -37 -172  0
 -38 -173  0
 -39 -174  0
 -40 -175  0
 -36 -186  0
 -37 -187  0
 -38 -188  0
 -39 -189  0
 -40 -190  0
 -36 -191  0
 -37 -192  0
 -38 -193  0
 -39 -194  0
 -40 -195  0
 -41  -61  0
 -42  -62  0
 -43  -63  0
 -44  -64  0
 -45  -65  0
 -41 -101  0
 -42 -102  0
 -43 -103  0
 -44 -104  0
 -45 -105  0
 -41 -126  0
 -42 -127  0
 -43 -128  0
 -44 -129  0
 -45 -130  0
 -41 -136  0
 -42 -137  0
 -43 -138  0
 -44 -139  0
 -45 -140  0
 -41 -156  0
 -42 -157  0
 -43 -158  0
 -44 -159  0
 -45 -160  0
 -41 -166  0
 -42 -167  0
 -43 -168  0
 -44 -169  0
 -45 -170  0
 -41 -176  0
 -42 -177  0
 -43 -178  0
 -44 -179  0
 -45 -180  0
 -41 -181  0
 -42 -182  0
 -43 -183  0
 -44 -184  0
 -45 -185  0
 -46  -56  0
 -47  -57  0
 -48  -58  0
 -49  -59  0
 -50  -60  0
 -46 -111  0
 -47 -112  0
 -48 -113  0
 -49 -114  0
 -50 -115  0
 -46 -126  0
 -47 -127  0
 -48 -128  0
 -49 -129  0
 -50 -130  0
 -46 -146  0
 -47 -147  0
 -48 -148  0
 -49 -149  0
 -50 -150  0
 -46 -151  0
 -47 -152  0
 -48 -153  0
 -49 -154  0
 -50 -155  0
 -46 -156  0
 -47 -157  0
 -48 -158  0
 -49 -159  0
 -50 -160  0
 -46 -181  0
 -47 -182  0
 -48 -183  0
 -49 -184  0
 -50 -185  0
 -46 -191  0
 -47 -192  0
 -48 -193  0
 -49 -194  0
 -50 -195  0
 -51  -56  0
 -52  -57  0
 -53  -58  0
 -54  -59  0
 -55  -60  0
 -51  -61  0
 -52  -62  0
 -53  -63  0
 -54  -64  0
 -55  -65  0
 -51  -76  0
 -52  -77  0
 -53  -78  0
 -54  -79  0
 -55  -80  0
 -51 -101  0
 -52 -102  0
 -53 -103  0
 -54 -104  0
 -55 -105  0
 -51 -106  0
 -52 -107  0
 -53 -108  0
 -54 -109  0
 -55 -110  0
 -51 -151  0
 -52 -152  0
 -53 -153  0
 -54 -154  0
 -55 -155  0
 -51 -156  0
 -52 -157  0
 -53 -158  0
 -54 -159  0
 -55 -160  0
 -51 -176  0
 -52 -177  0
 -53 -178  0
 -54 -179  0
 -55 -180  0
 -51 -181  0
 -52 -182  0
 -53 -183  0
 -54 -184  0
 -55 -185  0
 -56  -71  0
 -57  -72  0
 -58  -73  0
 -59  -74  0
 -60  -75  0
 -56  -86  0
 -57  -87  0
 -58  -88  0
 -59  -89  0
 -60  -90  0
 -56 -116  0
 -57 -117  0
 -58 -118  0
 -59 -119  0
 -60 -120  0
 -56 -121  0
 -57 -122  0
 -58 -123  0
 -59 -124  0
 -60 -125  0
 -56 -161  0
 -57 -162  0
 -58 -163  0
 -59 -164  0
 -60 -165  0
 -56 -166  0
 -57 -167  0
 -58 -168  0
 -59 -169  0
 -60 -170  0
 -56 -186  0
 -57 -187  0
 -58 -188  0
 -59 -189  0
 -60 -190  0
 -56 -196  0
 -57 -197  0
 -58 -198  0
 -59 -199  0
 -60 -200  0
 -61  -66  0
 -62  -67  0
 -63  -68  0
 -64  -69  0
 -65  -70  0
 -61  -81  0
 -62  -82  0
 -63  -83  0
 -64  -84  0
 -65  -85  0
 -61 -111  0
 -62 -112  0
 -63 -113  0
 -64 -114  0
 -65 -115  0
 -61 -116  0
 -62 -117  0
 -63 -118  0
 -64 -119  0
 -65 -120  0
 -61 -161  0
 -62 -162  0
 -63 -163  0
 -64 -164  0
 -65 -165  0
 -61 -171  0
 -62 -172  0
 -63 -173  0
 -64 -174  0
 -65 -175  0
 -61 -186  0
 -62 -187  0
 -63 -188  0
 -64 -189  0
 -65 -190  0
 -61 -191  0
 -62 -192  0
 -63 -193  0
 -64 -194  0
 -65 -195  0
 -66  -71  0
 -67  -72  0
 -68  -73  0
 -69  -74  0
 -70  -75  0
 -66  -96  0
 -67  -97  0
 -68  -98  0
 -69  -99  0
 -70 -100  0
 -66 -106  0
 -67 -107  0
 -68 -108  0
 -69 -109  0
 -70 -110  0
 -66 -121  0
 -67 -122  0
 -68 -123  0
 -69 -124  0
 -70 -125  0
 -66 -156  0
 -67 -157  0
 -68 -158  0
 -69 -159  0
 -70 -160  0
 -66 -166  0
 -67 -167  0
 -68 -168  0
 -69 -169  0
 -70 -170  0
 -66 -176  0
 -67 -177  0
 -68 -178  0
 -69 -179  0
 -70 -180  0
 -66 -196  0
 -67 -197  0
 -68 -198  0
 -69 -199  0
 -70 -200  0
 -71  -91  0
 -72  -92  0
 -73  -93  0
 -74  -94  0
 -75  -95  0
 -71 -101  0
 -72 -102  0
 -73 -103  0
 -74 -104  0
 -75 -105  0
 -71 -111  0
 -72 -112  0
 -73 -113  0
 -74 -114  0
 -75 -115  0
 -71 -151  0
 -72 -152  0
 -73 -153  0
 -74 -154  0
 -75 -155  0
 -71 -171  0
 -72 -172  0
 -73 -173  0
 -74 -174  0
 -75 -175  0
 -71 -181  0
 -72 -182  0
 -73 -183  0
 -74 -184  0
 -75 -185  0
 -71 -191  0
 -72 -192  0
 -73 -193  0
 -74 -194  0
 -75 -195  0
 -76  -81  0
 -77  -82  0
 -78  -83  0
 -79  -84  0
 -80  -85  0
 -76  -86  0
 -77  -87  0
 -78  -88  0
 -79  -89  0
 -80  -90  0
 -76 -111  0
 -77 -112  0
 -78 -113  0
 -79 -114  0
 -80 -115  0
 -76 -126  0
 -77 -127  0
 -78 -128  0
 -79 -129  0
 -80 -130  0
 -76 -136  0
 -77 -137  0
 -78 -138  0
 -79 -139  0
 -80 -140  0
 -76 -161  0
 -77 -162  0
 -78 -163  0
 -79 -164  0
 -80 -165  0
 -76 -166  0
 -77 -167  0
 -78 -168  0
 -79 -169  0
 -80 -170  0
 -76 -186  0
 -77 -187  0
 -78 -188  0
 -79 -189  0
 -80 -190  0
 -76 -191  0
 -77 -192  0
 -78 -193  0
 -79 -194  0
 -80 -195  0
 -81  -96  0
 -82  -97  0
 -83  -98  0
 -84  -99  0
 -85 -100  0
 -81 -121  0
 -82 -122  0
 -83 -123  0
 -84 -124  0
 -85 -125  0
 -81 -141  0
 -82 -142  0
 -83 -143  0
 -84 -144  0
 -85 -145  0
 -81 -146  0
 -82 -147  0
 -83 -148  0
 -84 -149  0
 -85 -150  0
 -81 -151  0
 -82 -152  0
 -83 -153  0
 -84 -154  0
 -85 -155  0
 -81 -156  0
 -82 -157  0
 -83 -158  0
 -84 -159  0
 -85 -160  0
 -81 -176  0
 -82 -177  0
 -83 -178  0
 -84 -179  0
 -85 -180  0
 -81 -196  0
 -82 -197  0
 -83 -198  0
 -84 -199  0
 -85 -200  0
 -86  -91  0
 -87  -92  0
 -88  -93  0
 -89  -94  0
 -90  -95  0
 -86 -106  0
 -87 -107  0
 -88 -108  0
 -89 -109  0
 -90 -110  0
 -86 -131  0
 -87 -132  0
 -88 -133  0
 -89 -134  0
 -90 -135  0
 -86 -141  0
 -87 -142  0
 -88 -143  0
 -89 -144  0
 -90 -145  0
 -86 -151  0
 -87 -152  0
 -88 -153  0
 -89 -154  0
 -90 -155  0
 -86 -171  0
 -87 -172  0
 -88 -173  0
 -89 -174  0
 -90 -175  0
 -86 -176  0
 -87 -177  0
 -88 -178  0
 -89 -179  0
 -90 -180  0
 -86 -181  0
 -87 -182  0
 -88 -183  0
 -89 -184  0
 -90 -185  0
 -91  -96  0
 -92  -97  0
 -93  -98  0
 -94  -99  0
 -95 -100  0
 -91 -116  0
 -92 -117  0
 -93 -118  0
 -94 -119  0
 -95 -120  0
 -91 -126  0
 -92 -127  0
 -93 -128  0
 -94 -129  0
 -95 -130  0
 -91 -146  0
 -92 -147  0
 -93 -148  0
 -94 -149  0
 -95 -150  0
 -91 -156  0
 -92 -157  0
 -93 -158  0
 -94 -159  0
 -95 -160  0
 -91 -166  0
 -92 -167  0
 -93 -168  0
 -94 -169  0
 -95 -170  0
 -91 -186  0
 -92 -187  0
 -93 -188  0
 -94 -189  0
 -95 -190  0
 -91 -196  0
 -92 -197  0
 -93 -198  0
 -94 -199  0
 -95 -200  0
 -96 -101  0
 -97 -102  0
 -98 -103  0
 -99 -104  0
-100 -105  0
 -96 -131  0
 -97 -132  0
 -98 -133  0
 -99 -134  0
-100 -135  0
 -96 -136  0
 -97 -137  0
 -98 -138  0
 -99 -139  0
-100 -140  0
 -96 -161  0
 -97 -162  0
 -98 -163  0
 -99 -164  0
-100 -165  0
 -96 -171  0
 -97 -172  0
 -98 -173  0
 -99 -174  0
-100 -175  0
 -96 -181  0
 -97 -182  0
 -98 -183  0
 -99 -184  0
-100 -185  0
 -96 -191  0
 -97 -192  0
 -98 -193  0
 -99 -194  0
-100 -195  0
-101 -116  0
-102 -117  0
-103 -118  0
-104 -119  0
-105 -120  0
-101 -121  0
-102 -122  0
-103 -123  0
-104 -124  0
-105 -125  0
-101 -141  0
-102 -142  0
-103 -143  0
-104 -144  0
-105 -145  0
-101 -146  0
-102 -147  0
-103 -148  0
-104 -149  0
-105 -150  0
-101 -186  0
-102 -187  0
-103 -188  0
-104 -189  0
-105 -190  0
-101 -196  0
-102 -197  0
-103 -198  0
-104 -199  0
-105 -200  0
-106 -111  0
-107 -112  0
-108 -113  0
-109 -114  0
-110 -115  0
-106 -116  0
-107 -117  0
-108 -118  0
-109 -119  0
-110 -120  0
-106 -126  0
-107 -127  0
-108 -128  0
-109 -129  0
-110 -130  0
-106 -146  0
-107 -147  0
-108 -148  0
-109 -149  0
-110 -150  0
-106 -186  0
-107 -187  0
-108 -188  0
-109 -189  0
-110 -190  0
-106 -191  0
-107 -192  0
-108 -193  0
-109 -194  0
-110 -195  0
-111 -121  0
-112 -122  0
-113 -123  0
-114 -124  0
-115 -125  0
-111 -131  0
-112 -132  0
-113 -133  0
-114 -134  0
-115 -135  0
-111 -141  0
-112 -142  0
-113 -143  0
-114 -144  0
-115 -145  0
-111 -176  0
-112 -177  0
-113 -178  0
-114 -179  0
-115 -180  0
-111 -196  0
-112 -197  0
-113 -198  0
-114 -199  0
-115 -200  0
-116 -131  0
-117 -132  0
-118 -133  0
-119 -134  0
-120 -135  0
-116 -136  0
-117 -137  0
-118 -138  0
-119 -139  0
-120 -140  0
-116 -176  0
-117 -177  0
-118 -178  0
-119 -179  0
-120 -180  0
-116 -181  0
-117 -182  0
-118 -183  0
-119 -184  0
-120 -185  0
-121 -126  0
-122 -127  0
-123 -128  0
-124 -129  0
-125 -130  0
-121 -136  0
-122 -137  0
-123 -138  0
-124 -139  0
-125 -140  0
-121 -181  0
-122 -182  0
-123 -183  0
-124 -184  0
-125 -185  0
-121 -191  0
-122 -192  0
-123 -193  0
-124 -194  0
-125 -195  0
-126 -131  0
-127 -132  0
-128 -133  0
-129 -134  0
-130 -135  0
-126 -141  0
-127 -142  0
-128 -143  0
-129 -144  0
-130 -145  0
-126 -171  0
-127 -172  0
-128 -173  0
-129 -174  0
-130 -175  0
-131 -146  0
-132 -147  0
-133 -148  0
-134 -149  0
-135 -150  0
-131 -156  0
-132 -157  0
-133 -158  0
-134 -159  0
-135 -160  0
-136 -141  0
-137 -142  0
-138 -143  0
-139 -144  0
-140 -145  0
-136 -146  0
-137 -147  0
-138 -148  0
-139 -149  0
-140 -150  0
-136 -151  0
-137 -152  0
-138 -153  0
-139 -154  0
-140 -155  0
-141 -166  0
-142 -167  0
-143 -168  0
-144 -169  0
-145 -170  0
-146 -161  0
-147 -162  0
-148 -163  0
-149 -164  0
-150 -165  0
-151 -161  0
-152 -162  0
-153 -163  0
-154 -164  0
-155 -165  0
-151 -166  0
-152 -167  0
-153 -168  0
-154 -169  0
-155 -170  0
-156 -161  0
-157 -162  0
-158 -163  0
-159 -164  0
-160 -165  0
-156 -171  0
-157 -172  0
-158 -173  0
-159 -174  0
-160 -175  0
-166 -171  0
-167 -172  0
-168 -173  0
-169 -174  0
-170 -175  0
